0001 10
0002 10
0003 1
0004 20
0005 11
0006 4
0007 20
0008 7
0009 14
0010 11
0011 1
0012 20
0013 11
0014 20
0015 20
0016 16
0017 20
0018 9
0019 1
0020 15
0021 3
0022 16
0023 12
0024 1
0025 3
0026 6
0027 1
0028 11
0029 4
0030 19
0031 8
0032 5
0033 16
0034 11
0035 10
0036 4
0037 20
0038 16
0039 11
0040 16
0041 6
0042 15
0043 4
0044 10
0045 9
0046 1
0047 1
0048 5
0049 9
0050 13
0051 19
0052 9
0053 10
0054 1
0055 20
0056 1
0057 17
0058 5
0059 14
0060 1
0061 10
0062 3
0063 9
0064 20
0065 1
0066 1
0067 7
0068 10
0069 16
0070 12
0071 20
0072 1
0073 20
0074 1
0075 1
0076 20
0077 5
0078 20
0079 1
0080 14
0081 13
0082 7
0083 1
0084 1
0085 18
0086 1
0087 1
0088 18
0089 8
0090 9
0091 1
0092 6
0093 16
0094 7
0095 7
0096 13
0097 18
0098 17
0099 1
0100 11
0101 11
0102 8
0103 13
0104 6
0105 5
0106 18
0107 1
0108 11
0109 17
0110 1
0111 8
0112 9
0113 3
0114 4
0115 1
0116 1
0117 5
0118 19
0119 3
0120 11
0121 5
0122 9
0123 20
0124 15
0125 17
0126 1
0127 9
0128 12
0129 1
0130 8
0131 7
0132 1
0133 20
0134 13
0135 14
0136 19
0137 14
0138 2
0139 9
0140 11
0141 18
0142 6
0143 12
0144 7
0145 4
0146 18
0147 10
0148 9
0149 6
0150 4
0151 19
0152 3
0153 2
0154 16
0155 20
0156 10
0157 4
0158 1
0159 20
0160 7
0161 19
0162 13
0163 1
0164 1
0165 1
0166 19
0167 12
0168 15
0169 1
0170 14
0171 10
0172 4
0173 1
0174 9
0175 1
0176 8
0177 6
0178 8
0179 5
0180 1
0181 10
0182 18
0183 13
0184 8
0185 19
0186 18
0187 17
0188 5
0189 19
0190 1
0191 13
0192 5
0193 15
0194 14
0195 6
0196 1
0197 14
0198 20
0199 20
0200 9
0201 3
0202 10
0203 20
0204 20
0205 8
0206 16
0207 16
0208 7
0209 7
0210 17
0211 17
0212 17
0213 16
0214 9
0215 18
0216 11
0217 10
0218 1
0219 8
0220 8
0221 16
0222 2
0223 1
0224 4
0225 3
0226 6
0227 19
0228 8
0229 16
0230 8
0231 20
0232 4
0233 10
0234 20
0235 18
0236 4
0237 3
0238 1
0239 11
0240 20
0241 1
0242 12
0243 10
0244 10
0245 18
0246 18
0247 15
0248 14
0249 1
0250 14
0251 14
0252 13
0253 14
0254 14
0255 2
0256 14
0257 2
0258 12
0259 2
0260 2
0261 16
0262 18
0263 8
0264 2
0265 1
0266 7
0267 8
0268 16
0269 12
0270 16
0271 1
0272 5
0273 8
0274 10
0275 20
0276 13
0277 19
0278 8
0279 20
0280 13
0281 1
0282 8
0283 7
0284 14
0285 17
0286 1
0287 1
0288 2
0289 1
0290 6
0291 9
0292 7
0293 7
0294 1
0295 3
0296 7
0297 4
0298 7
0299 10
0300 12
0301 1
0302 17
0303 19
0304 12
0305 6
0306 6
0307 4
0308 1
0309 20
0310 3
0311 12
0312 1
0313 4
0314 15
0315 11
0316 18
0317 16
0318 3
0319 2
0320 10
0321 11
0322 10
0323 10
0324 12
0325 6
0326 6
0327 1
0328 18
0329 8
0330 10
0331 3
0332 4
0333 4
0334 2
0335 20
0336 16
0337 13
0338 8
0339 11
0340 19
0341 9
0342 20
0343 16
0344 20
0345 2
0346 1
0347 8
0348 10
0349 11
0350 14
0351 17
0352 17
0353 4
0354 4
0355 16
0356 20
0357 4
0358 2
0359 5
0360 17
0361 8
0362 20
0363 11
0364 1
0365 3
0366 5
0367 19
0368 16
0369 1
0370 6
0371 20
0372 4
0373 5
0374 13
0375 16
0376 7
0377 3
0378 18
0379 13
0380 16
0381 15
0382 1
0383 6
0384 5
0385 7
0386 7
0387 15
0388 14
0389 14
0390 20
0391 20
0392 20
0393 20
0394 20
0395 19
0396 20
0397 20
0398 20
0399 9
0400 10
0401 1
0402 10
0403 16
0404 1
0405 7
0406 12
0407 17
0408 13
0409 1
0410 7
0411 20
0412 1
0413 5
0414 5
0415 15
0416 1
0417 20
0418 5
0419 17
0420 1
0421 11
0422 8
0423 20
0424 12
0425 7
0426 1
0427 20
0428 13
0429 7
0430 12
0431 2
0432 11
0433 7
0434 1
0435 12
0436 1
0437 20
0438 11
0439 4
0440 1
0441 4
0442 8
0443 20
0444 19
0445 9
0446 11
0447 3
0448 16
0449 16
0450 20
0451 1
0452 6
0453 13
0454 20
0455 14
0456 4
0457 9
0458 1
0459 5
0460 20
0461 11